c random clauses
p cnf 6 64
-6 -5 -4 2 0
-6 -5 -3 2 0
-6 -5 -1 2 0
-6 -5 1 4 0
-6 -4 -3 -2 0
-6 -4 -3 5 0
-6 -4 -1 3 0
-6 -4 1 3 0
-6 -4 2 3 0
-6 -3 -2 4 0
-6 -3 1 4 0
-6 -3 4 5 0
-6 -2 3 4 0
-6 -2 3 5 0
-6 -1 2 4 0
-6 -1 3 5 0
-6 1 2 4 0
-6 1 2 5 0
-6 1 3 4 0
-6 1 4 5 0
-5 -4 -3 1 0
-5 -4 -3 2 0
-5 -4 -3 6 0
-5 -4 -2 -1 0
-5 -4 -2 1 0
-5 -4 -1 2 0
-5 -4 2 6 0
-5 -3 -1 4 0
-5 -3 -1 6 0
-5 -2 -1 6 0
-5 -2 1 3 0
-5 -2 3 4 0
-5 -1 2 3 0
-5 -1 4 6 0
-5 1 3 6 0
-4 -3 -2 -1 0
-4 -3 -1 6 0
-4 -3 1 5 0
-4 -2 3 5 0
-4 -2 5 6 0
-4 -1 3 5 0
-4 1 2 3 0
-4 1 2 6 0
-4 2 3 6 0
-4 2 5 6 0
-4 3 5 6 0
-3 -2 -1 6 0
-3 -2 4 5 0
-3 -1 2 4 0
-3 -1 4 5 0
-3 1 5 6 0
-3 2 4 5 0
-3 2 5 6 0
-2 -1 5 6 0
-2 1 3 6 0
-2 1 4 6 0
-2 4 5 6 0
-1 2 5 6 0
-1 3 5 6 0
1 2 3 4 0
1 2 3 6 0
1 2 4 6 0
1 3 5 6 0
2 4 5 6 0
